n_res = 4;
rc = [ 20, 22, 24, 28 ];
n_tasks = 30;
d = [ 6, 2, 9, 8, 1, 4, 2, 1, 3, 2, 6, 5, 3, 1, 7, 2, 10, 3, 8, 6, 6, 9, 9, 1, 7, 2, 5, 9, 2, 2 ];
rr = [| 20, 20, 20, 20, 20, 20, 20, 20, 20, 20, 20, 20, 20, 20, 20, 20, 20, 20, 20, 20, 20, 20, 20, 20, 20, 20, 20, 20, 20, 20
      | 22, 22, 22, 22, 22, 22, 22, 22, 22, 22, 22, 22, 22, 22, 22, 22, 22, 22, 22, 22, 22, 22, 22, 22, 22, 22, 22, 22, 22, 22
      | 24, 24, 24, 24, 24, 24, 24, 24, 24, 24, 24, 24, 24, 24, 24, 24, 24, 24, 24, 24, 24, 24, 24, 24, 24, 24, 24, 24, 24, 24
      | 28, 28, 28, 28, 28, 28, 28, 28, 28, 28, 28, 28, 28, 28, 28, 28, 28, 28, 28, 28, 28, 28, 28, 28, 28, 28, 28, 28, 28, 28|];
suc = [ { 28 },
       { 4, 5, 6 },
       { 13, 19, 20 },
       { 10, 24, 30 },
       { 15, 17, 18 },
       { 7, 8, 11 },
       { 19 },
       { 9 },
       { 14, 21 },
       { 12, 25 },
       { 17 },
       { 14 },
       { 21 },
       { 16 },
       { 23 },
       { 23 },
       { 20, 22 },
       { 19 },
       { 30 },
       { 30 },
       { 22 },
       { 24, 28 },
       { 27, 29 },
       { 25 },
       { 26 },
       { 29 },
       { 28 },
       {  },
       {  },
       {  } ];
